# Solution for model r5_t9_m9_7 Batch Number: 1
# Finished Task: 9 / 9
# Makespan: 463.0, Total Distance: 206.0, Total Time: 0.4803
# R O S F Batch
0 0 -1 0.0 0.0 -1
1 1 7 0.0 0.0 -1
2 2 5 0.0 0.0 -1
3 3 8 0.0 0.0 -1
4 4 9 0.0 0.0 -1
5 2 -1 376.0 410.0 0
6 1 -1 437.0 463.0 0
7 1 13 263.0 285.0 0
8 3 -1 315.0 343.0 0
9 4 12 285.0 315.0 0
10 4 -1 410.0 437.0 0
11 1 6 376.0 410.0 0
12 4 10 343.0 376.0 0
13 1 11 296.0 317.0 0
